120
150
51
42
71
57
30
77
91
84
66
45
73
89
78
79
99
99
97
71
95
87
51
55
88
28
24
62
29
27
37
32
40
48
97
68
55
99
51
99
51
73
53
89
77
34
90
79
59
39
48
73
72
32
35
28
91
24
59
76
80
95
55
43
39
97
76
78
27
95
31
53
24
77
55
37
95
97
90
55
35
90
53
90
97
85
53
59
23
60
84
74
60
87
94
66
95
65
99
51
23
99
97
51
99
73
63
28
74
59
23
90
55
71
84
27
66
79
56
59
91
53
